51363
[0, 568, 569, 567, 566, 565, 1, 47, 48, 49, 46, 45, 44, 43, 50, 51, 52, 53, 54, 56, 57, 55, 79, 40, 39, 41, 42, 38, 37, 36, 35, 80, 78, 81, 82, 83, 85, 86, 87, 28, 27, 29, 26, 25, 24, 164, 23, 22, 21, 20, 17, 18, 31, 32, 33, 34, 30, 19, 16, 15, 221, 220, 219, 14, 218, 217, 216, 215, 214, 213, 212, 165, 174, 172, 171, 170, 169, 168, 167, 152, 155, 156, 157, 158, 159, 161, 162, 154, 163, 153, 160, 173, 175, 176, 177, 209, 210, 178, 179, 180, 284, 285, 286, 287, 288, 289, 290, 291, 292, 293, 294, 295, 296, 297, 298, 304, 305, 306, 307, 281, 282, 283, 303, 302, 301, 300, 299, 310, 309, 311, 308, 312, 313, 314, 315, 316, 317, 318, 319, 320, 322, 325, 327, 328, 329, 326, 324, 323, 321, 181, 182, 183, 184, 208, 231, 233, 230, 228, 229, 227, 226, 225, 224, 223, 222, 240, 234, 236, 239, 238, 237, 205, 206, 204, 203, 242, 243, 520, 519, 521, 522, 523, 524, 527, 526, 525, 530, 529, 528, 535, 536, 537, 538, 539, 540, 542, 541, 543, 544, 13, 547, 548, 546, 545, 12, 11, 549, 550, 552, 553, 554, 555, 557, 6, 5, 562, 561, 560, 4, 7, 8, 9, 10, 556, 559, 558, 551, 531, 532, 534, 533, 244, 245, 202, 246, 518, 517, 516, 515, 514, 473, 475, 474, 469, 470, 471, 472, 466, 465, 464, 463, 462, 459, 457, 458, 456, 460, 395, 396, 394, 255, 254, 256, 257, 258, 259, 260, 390, 391, 392, 393, 397, 398, 399, 401, 402, 403, 415, 416, 424, 425, 426, 427, 428, 417, 419, 420, 421, 422, 423, 418, 414, 413, 412, 411, 357, 358, 410, 409, 404, 408, 407, 406, 405, 359, 352, 353, 354, 360, 361, 362, 363, 351, 364, 365, 375, 376, 349, 366, 367, 368, 346, 345, 344, 369, 370, 340, 342, 343, 339, 338, 371, 372, 373, 374, 377, 379, 378, 333, 334, 335, 336, 332, 331, 330, 268, 380, 381, 384, 383, 385, 386, 387, 265, 266, 267, 389, 388, 264, 263, 272, 273, 274, 275, 276, 278, 279, 280, 277, 262, 261, 271, 270, 269, 382, 337, 341, 350, 348, 347, 355, 356, 400, 448, 449, 455, 450, 451, 452, 454, 453, 447, 442, 441, 443, 444, 440, 445, 432, 431, 430, 429, 433, 434, 435, 439, 436, 437, 438, 446, 461, 467, 468, 476, 477, 513, 512, 478, 479, 480, 481, 496, 497, 498, 499, 500, 501, 502, 504, 503, 482, 483, 484, 492, 493, 494, 495, 485, 486, 487, 488, 489, 491, 490, 506, 505, 507, 508, 509, 511, 510, 201, 247, 248, 200, 199, 198, 197, 196, 194, 193, 189, 188, 192, 190, 191, 195, 249, 250, 251, 253, 252, 241, 235, 232, 207, 185, 186, 187, 166, 211, 88, 89, 90, 91, 92, 93, 84, 109, 108, 107, 106, 104, 105, 103, 94, 102, 101, 100, 99, 95, 138, 137, 139, 140, 141, 142, 143, 144, 145, 146, 147, 148, 150, 149, 151, 136, 135, 134, 133, 98, 121, 118, 122, 97, 96, 119, 117, 116, 115, 114, 73, 72, 74, 75, 59, 58, 76, 77, 71, 62, 63, 61, 60, 70, 68, 69, 125, 124, 123, 131, 130, 132, 67, 66, 65, 126, 127, 128, 129, 64, 113, 112, 110, 111, 120, 2, 3, 564, 563, 573, 572, 571, 570]
